benchmarks/ising_models/2DLattices/SqrLattices/J_unif_-1,1/2x2_square_lattice_unif_frust.wcnf
p wcnf 8 16
w -2 0.631105 0
w 2 1.584521 0
w -3 1.095522 0
w 3 0.912807 0
w -5 2.628607 0
w 5 0.380430 0
w -7 0.448783 0
w 7 2.228247 0
2 1 4 0
2 -1 -4 0
-2 1 -4 0
-2 -1 4 0
3 1 6 0
3 -1 -6 0
-3 1 -6 0
-3 -1 6 0
5 4 8 0
5 -4 -8 0
-5 4 -8 0
-5 -4 8 0
7 6 8 0
7 -6 -8 0
-7 6 -8 0
-7 -6 8 0
