benchmarks/ising_models/2DLattices/SqrLattices/J_unif_-1,1/2x2_square_lattice_unif_frust
ISING
4
2 2 2 2
0 4 1.0 1
2 0 1
2 0 2
2 1 3
2 2 3

4
 0.4602823999713459 -0.4602823999713459
 -0.4602823999713459 0.4602823999713459
4
 -0.09123130957274483 0.09123130957274483
 0.09123130957274483 -0.09123130957274483
4
 -0.9664540486525406 0.9664540486525406
 0.9664540486525406 -0.9664540486525406
4
 0.801215018200452 -0.801215018200452
 -0.801215018200452 0.801215018200452
